NAME : 28.80045.tour
COMMENT : Length = 80045
COMMENT : Found by LKH-3 [Keld Helsgaun] Thu Jun 19 18:16:52 2025
TYPE : TOUR
DIMENSION : 100
TOUR_SECTION
1
40
61
31
44
74
3
86
84
93
87
37
63
33
65
78
95
30
4
9
46
76
82
25
67
51
36
56
92
64
49
100
38
79
55
59
27
2
21
60
72
20
32
99
57
73
11
35
41
70
98
15
94
42
47
10
45
43
13
22
29
19
77
23
53
52
75
80
96
14
39
54
18
62
5
90
68
16
91
28
12
85
66
17
24
97
89
71
69
83
48
7
81
50
8
6
26
58
34
88
-1
EOF
